100
1000
240
240
239
237
235
235
235
235
235
232
231
230
230
229
228
228
227
226
225
223
222
220
219
219
219
218
217
217
216
216
216
216
216
215
215
215
214
214
214
213
212
211
211
210
210
209
208
208
208
207
206
203
202
202
201
200
198
196
196
194
194
193
189
189
188
188
187
186
185
184
184
182
182
182
180
178
178
177
176
176
173
172
171
171
171
171
171
170
170
170
169
168
168
167
166
165
165
165
163
162
